Route #1: 43 44 23 22 50 38 9 12 51 
Route #2: 34 11 55 20 31 2 54 30 
Route #3: 47 45 6 7 15 18 19 25 
Route #4: 21 26 4 39 52 35 32 
Route #5: 16 1 42 37 41 29 24 53 
Route #6: 46 28 8 10 17 40 5 14 
Route #7: 36 33 49 13 3 48 27 
cost 821.528